(set-logic BV) (define-fun origCir ((n226 Bool) (n240 Bool) (n230 Bool) (n245 Bool) (n236 Bool)) Bool (and (not (xor n245 (not (and (and n240 n230) n226)))) n236)) (synth-fun skel ((n226 Bool) (n240 Bool) (n230 Bool) (n245 Bool) (n236 Bool)) Bool) (declare-var n226 Bool) (declare-var n240 Bool) (declare-var n230 Bool) (declare-var n245 Bool) (declare-var n236 Bool) (constraint (= (origCir n226 n240 n230 n245 n236) (skel n226 n240 n230 n245 n236))) (check-synth)
